1 2
2 2
3 10
4 1
5 3
6 1
7 15
8 11
9 13
10 17
11 5
12 12
13 4
14 3
15 6
16 1
17 1
18 2
19 9
20 6
21 4
22 1
23 17
24 9
25 12
26 3
27 6
28 17
29 11
30 19
31 2
32 17
33 1
34 6
35 4
36 1
37 3
38 2
39 7
40 1
41 7
42 9
43 20
44 8
45 3
46 12
47 7
48 11
49 6
50 1
51 12
52 3
53 14
54 8
55 20
56 9
57 5
58 2
59 1
60 9
61 5
62 1
63 4
64 2
65 3
66 3
67 4
68 4
69 1
70 1
71 2
72 1
73 2
74 3
75 7
76 3
77 7
78 4
79 1
80 1
81 3
82 2
83 1
84 2
85 2
86 16
87 16
88 9
89 2
90 10
91 7
92 3
93 1
94 20
95 1
96 19
97 9
98 2
99 7
100 11
101 14
102 19
103 3
104 13
105 3
106 2
107 4
108 1
109 3
110 3
111 10
112 10
113 11
114 8
115 18
116 4
117 17
118 9
119 11
120 6
121 8
122 1
123 7
124 1
125 13
126 5
127 2
128 8
129 3
130 2
131 2
132 4
133 2
134 1
135 1
136 3
137 1
138 2
139 1
140 17
141 11
142 2
143 12
144 19
145 8
146 14
147 16
148 17
149 2
150 8
151 3
152 11
153 1
154 2
155 4
156 1
157 5
158 3
159 4
160 4
161 2
162 3
163 1
164 10
165 10
166 12
167 17
168 17
169 6
170 1
171 11
172 6
173 20
174 10
175 4
176 9
177 7
178 1
179 2
180 20
181 16
182 11
183 17
184 2
185 20
186 1
187 1
188 9
189 14
190 14
191 5
192 10
193 8
194 6
195 13
196 2
197 12
198 8
199 1
200 4
201 5
202 9
203 3
204 1
205 1
206 4
207 12
208 12
209 6
210 13
211 13
212 13
213 12
214 11
215 1
216 1
217 4
218 16
219 4
220 3
221 1
222 20
223 11
224 6
225 19
226 6
227 17
228 7
229 1
230 3
231 14
232 3
233 1
234 2
235 2
236 3
237 3
238 8
239 17
240 8
241 4
242 2
243 10
244 10
245 14
246 9
247 17
248 4
249 14
250 5
251 5
252 4
253 5
254 5
255 4
256 5
257 4
258 8
259 9
260 9
261 8
262 11
263 20
264 9
265 1
266 19
267 2
268 6
269 9
270 6
271 11
272 14
273 13
274 10
275 1
276 17
277 20
278 19
279 5
280 1
281 4
282 17
283 2
284 1
285 1
286 9
287 19
288 3
289 19
290 19
291 20
292 19
293 19
294 20
295 12
296 19
297 1
298 2
299 11
300 19
301 8
302 9
303 3
304 16
305 9
306 6
307 3
308 4
309 1
310 1
311 7
312 2
313 2
314 1
315 2
316 11
317 1
318 3
319 3
320 10
321 16
322 10
323 10
324 12
325 1
326 1
327 18
328 16
329 1
330 1
331 6
332 7
333 10
334 4
335 8
336 13
337 20
338 3
339 8
340 11
341 9
342 15
343 3
344 20
345 2
346 4
347 1
348 5
349 1
350 2
351 7
352 8
353 6
354 11
355 1
356 19
357 6
358 4
359 2
360 14
361 9
362 2
363 2
364 16
365 1
366 1
367 7
368 17
369 1
370 8
371 7
372 5
373 5
374 2
375 3
376 5
377 10
378 12
379 19
380 3
381 1
382 10
383 8
384 4
385 17
386 3
387 17
388 7
389 1
390 6
391 14
392 16
393 15
394 15
395 14
396 15
397 15
398 15
399 15
400 10
401 1
402 20
403 4
404 1
405 8
406 19
407 9
408 3
409 1
410 6
411 3
412 2
413 1
414 2
415 1
416 4
417 15
418 2
419 3
420 6
421 19
422 12
423 3
424 1
425 1
426 4
427 17
428 3
429 1
430 8
431 17
432 8
433 11
434 20
435 12
436 20
437 9
438 13
439 6
440 4
441 6
442 11
443 1
444 19
445 2
446 17
447 1
448 1
449 5
450 9
451 2
452 14
453 6
454 6
455 2
456 3
457 9
458 12
459 6
460 1
461 17
